p td 19 57
2 1
3 2
4 1
4 2
5 4
5 2
6 3
7 1
7 4
7 3
8 2
8 5
8 4
8 3
9 3
9 6
9 7
9 8
11 7
11 9
11 1
12 4
12 9
12 8
12 10
12 11
13 3
13 7
14 11
14 13
15 13
15 1
15 3
15 8
15 9
16 11
16 13
16 1
16 8
17 6
17 4
17 3
18 12
18 15
18 1
18 13
18 16
18 3
18 8
18 17
18 4
19 9
19 10
19 13
19 4
19 12
19 5
